40
    91    87    47    96    88    88    35    72    14    48    41    23    65    76    61    72    66    30    73    40    70    25    31    57    57    25    67    51    37    51    93    56    47    74    96     8    53    20    44    48
     1     1     6     9     9    10     9     3     2     4     9     3     6     5     1     7     1     1     4     2     1     6     9     8     6     2     2     2     2     5     2     8     8     7    10     5     9     6     3     6
  1702  2117  2171  2067  2477  2866  1026  1652  1803  1835  1758  2600  1385  1375  2016  1910  1018  1725  1750  2637  2831  2622  1326  1596  1075  1559   771  2629  1913  2043  2335  2093  2105   761   845  2121  2131  2497  1824  2775
